7585.0
1 1 1 1 1 1 1 1 1 1 
8 9 10 11 12 13 14 15 64 
16 17 18 19 20 68 
23 24 25 26 27 28 29 30 79 
31 32 33 34 35 36 37 38 39 63 
0 1 2 3 4 5 6 7 40 70 
47 52 53 59 60 61 69 78 87 89 
22 41 51 65 66 76 77 86 
21 46 50 56 57 73 74 80 82 85 88 
42 43 44 45 54 55 67 
48 49 58 62 71 72 75 81 83 84 
